p edge 50 130
e 0 3
e 0 11
e 0 12
e 0 15
e 0 22
e 0 26
e 0 29
e 0 35
e 0 36
e 0 41
e 0 44
e 1 15
e 1 19
e 1 21
e 1 32
e 1 43
e 2 7
e 2 11
e 2 18
e 2 25
e 2 44
e 3 4
e 3 5
e 3 6
e 3 19
e 3 25
e 3 29
e 4 34
e 4 41
e 5 6
e 5 13
e 5 29
e 6 22
e 6 34
e 6 37
e 6 39
e 7 8
e 7 10
e 7 13
e 7 37
e 7 44
e 7 49
e 8 10
e 8 48
e 8 49
e 9 38
e 9 42
e 10 28
e 11 29
e 11 46
e 11 48
e 11 49
e 12 20
e 13 25
e 13 26
e 13 28
e 14 25
e 14 27
e 14 30
e 14 38
e 15 19
e 15 37
e 16 27
e 16 37
e 16 38
e 16 43
e 16 44
e 17 18
e 17 30
e 17 40
e 18 22
e 18 23
e 18 33
e 18 40
e 19 22
e 19 47
e 19 48
e 20 28
e 20 45
e 21 26
e 21 35
e 21 40
e 21 42
e 21 47
e 22 28
e 22 38
e 23 27
e 23 46
e 24 32
e 24 38
e 24 48
e 25 26
e 25 34
e 25 41
e 25 46
e 26 37
e 26 44
e 27 31
e 27 32
e 27 34
e 27 41
e 27 43
e 27 48
e 28 43
e 28 48
e 29 33
e 29 45
e 29 49
e 30 34
e 30 37
e 30 41
e 30 43
e 33 48
e 33 49
e 34 35
e 35 38
e 35 46
e 36 38
e 38 43
e 38 48
e 38 49
e 41 46
e 41 47
e 42 48
e 43 47
e 43 49
e 44 46
e 45 46
e 45 49
e 47 49
